\ Model IndependentOptimization_copy
\ LP format - for model browsing. Use MPS format to capture full model detail.
Minimize
 
Subject To
 Task_1_Assignment: b[1,1] + b[1,2] + b[1,3] + b[1,4] + b[1,5] = 1
 Task_1_Deadline: 12.5 b[1,1] + 12.5 b[1,2] + 12.5 b[1,3] + 12.5 b[1,4]
   + 12.5 b[1,5] <= 10
Bounds
Binaries
 b[1,1] b[1,2] b[1,3] b[1,4] b[1,5]
End
